(set-info :smt-lib-version 2.6)
(set-logic LRA)
(set-info :source |
   Monniaux, David; Quantifier Elimination by Lazy Model Enumeration, CAV 2010
|)
(set-info :category "random")
; ./Mjollnir_examples/B3/formula_115.m
(set-info :status sat)
(assert
 (forall ((|v11:0| Real) )(forall ((|v10:1| Real) )(forall ((|v9:2| Real) )(forall ((|v8:3| Real) )(exists ((|v7:4| Real) )(exists ((|v6:5| Real) )(exists ((|v5:6| Real) )(exists ((|v4:7| Real) )(forall ((|v3:8| Real) )(forall ((|v2:9| Real) )(forall ((|v1:10| Real) )(forall ((|v0:11| Real) )(let ((?x119 9))
(let ((?x120 (* ?x119 |v11:0|)))
(let ((?x340 (+ (+ (+ (* 5 |v5:6|) (* 4 |v9:2|)) ?x120) (* (- 1) |v9:2|))))
(let ((?x41 4))
(let ((?x326 (+ (+ (* 13 |v3:8|) (* (- 3) |v11:0|)) (* ?x119 |v5:6|))))
(let ((?x47 (- 18)))
(let ((?x86 17))
(let ((?x145 (* ?x86 |v2:9|)))
(let ((?x320 (+ (+ (* 11 |v11:0|) (* 3 |v10:1|)) (* 20 |v8:3|))))
(let (($x330 (or (<= (+ ?x320 ?x145) ?x47) (<= (+ ?x326 (* (- 10) |v10:1|)) ?x41))))
(let ((?x95 19))
(let ((?x311 (+ (+ (* (- 3) |v11:0|) (* (- 9) |v5:6|)) (* (- 2) |v6:5|))))
(let ((?x73 (- 7)))
(let ((?x303 (+ (+ (* (- 2) |v8:3|) (* (- 19) |v8:3|)) (* (- 2) |v4:7|))))
(let (($x315 (or (<= (+ ?x303 (* 10 |v7:4|)) ?x73) (<= (+ ?x311 (* (- 10) |v4:7|)) ?x95))))
(let ((?x295 (+ (+ (* (- 4) |v8:3|) (* 20 |v7:4|)) (* (- 14) |v2:9|))))
(let ((?x63 12))
(let ((?x10 (- 6)))
(let ((?x156 (* ?x10 |v2:9|)))
(let ((?x286 (+ (+ (* 0 |v10:1|) (* (- 19) |v6:5|)) (* (- 20) |v4:7|))))
(let ((?x277 (+ (+ (* (- 14) |v8:3|) (* ?x10 |v5:6|)) (* 7 |v11:0|))))
(let (($x289 (or (<= (+ ?x277 (* (- 16) |v0:11|)) (- 20)) (<= (+ ?x286 ?x156) ?x63))))
(let ((?x268 (+ (+ (* (- 3) |v10:1|) (* 16 |v2:9|)) (* (- 2) |v10:1|))))
(let ((?x260 (+ (+ (+ (* ?x41 |v3:8|) (* 10 |v0:11|)) (* ?x10 |v3:8|)) (* ?x63 |v6:5|))))
(let (($x272 (or (<= ?x260 ?x95) (<= (+ ?x268 (* (- 2) |v11:0|)) (- 13)))))
(let ((?x116 (* (- 17) |v7:4|)))
(let (($x251 (<= (+ (+ (+ |v10:1| (* (- 12) |v2:9|)) (* ?x86 |v4:7|)) ?x116) 15)))
(let ((?x174 13))
(let ((?x242 (+ (+ (* (- 14) |v11:0|) (* (- 12) |v0:11|)) (* (- 1) |v4:7|))))
(let ((?x125 18))
(let ((?x201 (* 2 |v1:10|)))
(let ((?x232 (+ (+ (* 8 |v11:0|) (* ?x125 |v2:9|)) (* 6 |v2:9|))))
(let ((?x223 (+ (+ (* (- 11) |v8:3|) (* 5 |v8:3|)) (* ?x174 |v2:9|))))
(let (($x253 (or (and (<= (+ ?x223 ?x201) ?x73) (<= (+ ?x232 ?x201) ?x125)) (and (<= (+ ?x242 ?x145) ?x174) $x251))))
(let (($x333 (and (and $x253 (or $x272 $x289)) (and (<= (+ ?x295 (* ?x174 |v1:10|)) ?x47) (and $x315 $x330)))))
(let ((?x213 (- 10)))
(let ((?x211 (* ?x10 |v5:6|)))
(let ((?x212 (+ (+ (+ (* ?x10 |v9:2|) (* ?x41 |v6:5|)) (* 8 |v0:11|)) ?x211)))
(let ((?x198 (+ (+ (* 10 |v4:7|) (* (- 4) |v6:5|)) (* (- 11) |v5:6|))))
(let ((?x24 0))
(let ((?x189 (+ (+ (+ (* 10 |v8:3|) |v9:2|) (* 11 |v2:9|)) (* (- 5) |v8:3|))))
(let ((?x52 (- 9)))
(let ((?x180 (+ (+ (+ (* ?x125 |v11:0|) (* ?x174 |v11:0|)) (* (- 16) |v4:7|)) (* ?x95 |v8:3|))))
(let (($x216 (or (or (<= ?x180 ?x52) (<= ?x189 ?x24)) (or (<= (+ ?x198 ?x201) ?x10) (<= ?x212 ?x213)))))
(let ((?x168 (+ (+ (+ (* 11 |v4:7|) |v6:5|) (* 14 |v2:9|)) (* (- 14) |v9:2|))))
(let ((?x36 (- 16)))
(let ((?x159 (+ (+ (+ (* (- 3) |v4:7|) (* 5 |v3:8|)) ?x156) (* (- 12) |v9:2|))))
(let ((?x151 (+ (+ (+ (* ?x47 |v0:11|) ?x145) (* 20 |v11:0|)) (* 11 |v5:6|))))
(let ((?x134 (+ (+ (* ?x125 |v9:2|) (* (- 3) |v9:2|)) (* 3 |v2:9|))))
(let ((?x121 (+ (+ (+ (* 11 |v0:11|) (* (- 15) |v8:3|)) ?x116) ?x120)))
(let (($x141 (and (<= ?x121 ?x36) (<= (+ ?x134 (* (- 13) |v9:2|)) (- 8)))))
(let ((?x106 (- 19)))
(let ((?x103 (+ (+ (* ?x86 |v4:7|) (* 7 |v9:2|)) (* 5 |v0:11|))))
(let ((?x94 (+ (+ (+ (* ?x86 |v8:3|) (* (- 12) |v10:1|)) (* ?x86 |v3:8|)) (* (- 11) |v1:10|))))
(let ((?x80 (- 14)))
(let ((?x79 (+ (+ (+ (* 7 |v2:9|) (* ?x52 |v1:10|)) (* ?x73 |v10:1|)) (* 16 |v4:7|))))
(let ((?x62 (+ (+ (+ (* ?x52 |v4:7|) (* 5 |v4:7|)) (* ?x10 |v9:2|)) (* (- 11) |v11:0|))))
(let ((?x46 (+ (+ (+ (* 11 |v8:3|) (* ?x36 |v6:5|)) (* ?x41 |v11:0|)) (* ?x36 |v2:9|))))
(let ((?x27 10))
(let ((?x19 20))
(let ((?x20 (* ?x19 |v7:4|)))
(let ((?x26 (+ (+ (+ (* ?x10 |v9:2|) (* (- 12) |v1:10|)) ?x20) (* ?x24 |v4:7|))))
(let (($x83 (and (and (<= ?x26 ?x27) (<= ?x46 ?x47)) (or (<= ?x62 ?x63) (<= ?x79 ?x80)))))
(let (($x143 (and $x83 (or (and (<= ?x94 ?x95) (<= (+ ?x103 (* ?x41 |v0:11|)) ?x106)) $x141))))
(let (($x218 (or $x143 (or (and (<= ?x151 ?x73) (or (<= ?x159 ?x36) (<= ?x168 ?x73))) $x216))))
(and (or $x218 $x333) (<= ?x340 ?x119))))))))))))))))))))))))))))))))))))))))))))))))))))))))))))))))))))
)
)
)
)
)
)
)
)
)
)
)
)
(check-sat)
(exit)

